
Gurobi 13.0.0 (win64) logging started Wed Dec 17 19:32:15 2025

Set parameter LogFile to value "log_file"
Gurobi Optimizer version 13.0.0 build v13.0.0rc1 (win64 - Windows 11.0 (26100.2))

CPU model: 13th Gen Intel(R) Core(TM) i7-13700H, instruction set [SSE2|AVX|AVX2]
Thread count: 14 physical cores, 20 logical processors, using up to 20 threads

Optimize a model with 529 rows, 752 columns and 1962 nonzeros (Max)
Model fingerprint: 0x640b44fa
Model has 752 linear objective coefficients
Variable types: 0 continuous, 752 integer (0 binary)
Coefficient statistics:
  Matrix range     [1e+00, 1e+01]
  Objective range  [4e+01, 3e+02]
  Bounds range     [0e+00, 0e+00]
  RHS range        [1e+00, 3e+02]
Found heuristic solution: objective 531594.00000
Presolve removed 287 rows and 118 columns
Presolve time: 0.01s
Presolved: 242 rows, 634 columns, 1454 nonzeros
Found heuristic solution: objective 536194.00000
Variable types: 0 continuous, 634 integer (10 binary)
Found heuristic solution: objective 549812.00000

Root relaxation: objective 5.974695e+05, 338 iterations, 0.00 seconds (0.00 work units)

    Nodes    |    Current Node    |     Objective Bounds      |     Work
 Expl Unexpl |  Obj  Depth IntInf | Incumbent    BestBd   Gap | It/Node Time

     0     0 597469.496    0   61 549812.000 597469.496  8.67%     -    0s
H    0     0                    596336.00000 597469.496  0.19%     -    0s
H    0     0                    596427.00000 597469.496  0.17%     -    0s
H    0     0                    596691.00000 597469.496  0.13%     -    0s
H    0     0                    596789.00000 597469.496  0.11%     -    0s
H    0     0                    596999.00000 597469.496  0.08%     -    0s
H    0     0                    597072.00000 597469.496  0.07%     -    0s
H    0     0                    597130.00000 597469.496  0.06%     -    0s
H    0     0                    597135.00000 597469.496  0.06%     -    0s
     0     0 597334.205    0   33 597135.000 597334.205  0.03%     -    0s
H    0     0                    597156.00000 597334.205  0.03%     -    0s
H    0     0                    597197.00000 597334.205  0.02%     -    0s
H    0     0                    597219.00000 597334.205  0.02%     -    0s
     0     0 597333.667    0   31 597219.000 597333.667  0.02%     -    0s
H    0     0                    597269.00000 597317.000  0.01%     -    0s
     0     0 597317.000    0   10 597269.000 597317.000  0.01%     -    0s

Cutting planes:
  Gomory: 22
  Implied bound: 1
  MIR: 30
  StrongCG: 7

Explored 1 nodes (483 simplex iterations) in 0.05 seconds (0.01 work units)
Thread count was 20 (of 20 available processors)

Solution count 10: 597269 597219 597197 ... 596691

Optimal solution found (tolerance 1.00e-04)
Best objective 5.972690000000e+05, best bound 5.973170000000e+05, gap 0.0080%

Gurobi 13.0.0 (win64) logging started Wed Dec 17 20:11:51 2025

Set parameter LogFile to value "log_file"
Gurobi Optimizer version 13.0.0 build v13.0.0rc1 (win64 - Windows 11.0 (26100.2))

CPU model: 13th Gen Intel(R) Core(TM) i7-13700H, instruction set [SSE2|AVX|AVX2]
Thread count: 14 physical cores, 20 logical processors, using up to 20 threads

Optimize a model with 529 rows, 752 columns and 1962 nonzeros (Max)
Model fingerprint: 0x640b44fa
Model has 752 linear objective coefficients
Variable types: 0 continuous, 752 integer (0 binary)
Coefficient statistics:
  Matrix range     [1e+00, 1e+01]
  Objective range  [4e+01, 3e+02]
  Bounds range     [0e+00, 0e+00]
  RHS range        [1e+00, 3e+02]
Found heuristic solution: objective 531594.00000
Presolve removed 287 rows and 118 columns
Presolve time: 0.01s
Presolved: 242 rows, 634 columns, 1454 nonzeros
Found heuristic solution: objective 536194.00000
Variable types: 0 continuous, 634 integer (10 binary)
Found heuristic solution: objective 549812.00000

Root relaxation: objective 5.974695e+05, 338 iterations, 0.00 seconds (0.00 work units)

    Nodes    |    Current Node    |     Objective Bounds      |     Work
 Expl Unexpl |  Obj  Depth IntInf | Incumbent    BestBd   Gap | It/Node Time

     0     0 597469.496    0   61 549812.000 597469.496  8.67%     -    0s
H    0     0                    596336.00000 597469.496  0.19%     -    0s
H    0     0                    596427.00000 597469.496  0.17%     -    0s
H    0     0                    596691.00000 597469.496  0.13%     -    0s
H    0     0                    596789.00000 597469.496  0.11%     -    0s
H    0     0                    596999.00000 597469.496  0.08%     -    0s
H    0     0                    597072.00000 597469.496  0.07%     -    0s
H    0     0                    597130.00000 597469.496  0.06%     -    0s
H    0     0                    597135.00000 597469.496  0.06%     -    0s
     0     0 597334.205    0   33 597135.000 597334.205  0.03%     -    0s
H    0     0                    597156.00000 597334.205  0.03%     -    0s
H    0     0                    597197.00000 597334.205  0.02%     -    0s
H    0     0                    597219.00000 597334.205  0.02%     -    0s
     0     0 597333.667    0   31 597219.000 597333.667  0.02%     -    0s
H    0     0                    597269.00000 597317.000  0.01%     -    0s
     0     0 597317.000    0   10 597269.000 597317.000  0.01%     -    0s

Cutting planes:
  Gomory: 22
  Implied bound: 1
  MIR: 30
  StrongCG: 7

Explored 1 nodes (483 simplex iterations) in 0.04 seconds (0.01 work units)
Thread count was 20 (of 20 available processors)

Solution count 10: 597269 597219 597197 ... 596691

Optimal solution found (tolerance 1.00e-04)
Best objective 5.972690000000e+05, best bound 5.973170000000e+05, gap 0.0080%

Gurobi 13.0.0 (win64) logging started Wed Dec 17 20:14:40 2025

Set parameter LogFile to value "log_file"
Gurobi Optimizer version 13.0.0 build v13.0.0rc1 (win64 - Windows 11.0 (26100.2))

CPU model: 13th Gen Intel(R) Core(TM) i7-13700H, instruction set [SSE2|AVX|AVX2]
Thread count: 14 physical cores, 20 logical processors, using up to 20 threads

Optimize a model with 529 rows, 752 columns and 1962 nonzeros (Max)
Model fingerprint: 0xf0d38ed2
Model has 752 linear objective coefficients
Variable types: 0 continuous, 752 integer (0 binary)
Coefficient statistics:
  Matrix range     [1e-01, 1e+00]
  Objective range  [4e+01, 3e+02]
  Bounds range     [0e+00, 0e+00]
  RHS range        [1e+00, 3e+02]
Found heuristic solution: objective 696227.00000
Presolve removed 309 rows and 200 columns
Presolve time: 0.01s
Presolved: 220 rows, 552 columns, 1239 nonzeros
Found heuristic solution: objective 685114.00000
Variable types: 0 continuous, 552 integer (1 binary)
Found heuristic solution: objective 721044.00000

Root relaxation: objective 7.503461e+05, 243 iterations, 0.00 seconds (0.00 work units)

    Nodes    |    Current Node    |     Objective Bounds      |     Work
 Expl Unexpl |  Obj  Depth IntInf | Incumbent    BestBd   Gap | It/Node Time

     0     0 750346.066    0   33 721044.000 750346.066  4.06%     -    0s
H    0     0                    750008.00000 750346.066  0.05%     -    0s
H    0     0                    750263.00000 750346.066  0.01%     -    0s
H    0     0                    750265.00000 750346.066  0.01%     -    0s
     0     0          -    0      750265.000 750323.678  0.01%     -    0s

Cutting planes:
  Gomory: 7
  MIR: 7
  StrongCG: 8

Explored 1 nodes (262 simplex iterations) in 0.04 seconds (0.01 work units)
Thread count was 20 (of 20 available processors)

Solution count 6: 750265 750263 750008 ... 685114

Optimal solution found (tolerance 1.00e-04)
Best objective 7.502650000000e+05, best bound 7.503236779320e+05, gap 0.0078%

Gurobi 13.0.0 (win64) logging started Wed Dec 17 20:21:32 2025

Set parameter LogFile to value "log_file"
Gurobi Optimizer version 13.0.0 build v13.0.0rc1 (win64 - Windows 11.0 (26100.2))

CPU model: 13th Gen Intel(R) Core(TM) i7-13700H, instruction set [SSE2|AVX|AVX2]
Thread count: 14 physical cores, 20 logical processors, using up to 20 threads

Optimize a model with 529 rows, 752 columns and 1962 nonzeros (Max)
Model fingerprint: 0xf0d38ed2
Model has 752 linear objective coefficients
Variable types: 0 continuous, 752 integer (0 binary)
Coefficient statistics:
  Matrix range     [1e-01, 1e+00]
  Objective range  [4e+01, 3e+02]
  Bounds range     [0e+00, 0e+00]
  RHS range        [1e+00, 3e+02]
Found heuristic solution: objective 696227.00000
Presolve removed 309 rows and 200 columns
Presolve time: 0.02s
Presolved: 220 rows, 552 columns, 1239 nonzeros
Found heuristic solution: objective 685114.00000
Variable types: 0 continuous, 552 integer (1 binary)
Found heuristic solution: objective 721044.00000

Root relaxation: objective 7.503461e+05, 243 iterations, 0.00 seconds (0.00 work units)

    Nodes    |    Current Node    |     Objective Bounds      |     Work
 Expl Unexpl |  Obj  Depth IntInf | Incumbent    BestBd   Gap | It/Node Time

     0     0 750346.066    0   33 721044.000 750346.066  4.06%     -    0s
H    0     0                    750008.00000 750346.066  0.05%     -    0s
H    0     0                    750263.00000 750346.066  0.01%     -    0s
H    0     0                    750265.00000 750346.066  0.01%     -    0s
     0     0          -    0      750265.000 750323.678  0.01%     -    0s

Cutting planes:
  Gomory: 7
  MIR: 7
  StrongCG: 8

Explored 1 nodes (262 simplex iterations) in 0.04 seconds (0.01 work units)
Thread count was 20 (of 20 available processors)

Solution count 6: 750265 750263 750008 ... 685114

Optimal solution found (tolerance 1.00e-04)
Best objective 7.502650000000e+05, best bound 7.503236779320e+05, gap 0.0078%

Gurobi 13.0.0 (win64) logging started Wed Dec 17 20:26:32 2025

Set parameter LogFile to value "log_file"
Gurobi Optimizer version 13.0.0 build v13.0.0rc1 (win64 - Windows 11.0 (26100.2))

CPU model: 13th Gen Intel(R) Core(TM) i7-13700H, instruction set [SSE2|AVX|AVX2]
Thread count: 14 physical cores, 20 logical processors, using up to 20 threads

Optimize a model with 529 rows, 752 columns and 1962 nonzeros (Max)
Model fingerprint: 0x640b44fa
Model has 752 linear objective coefficients
Variable types: 0 continuous, 752 integer (0 binary)
Coefficient statistics:
  Matrix range     [1e+00, 1e+01]
  Objective range  [4e+01, 3e+02]
  Bounds range     [0e+00, 0e+00]
  RHS range        [1e+00, 3e+02]
Found heuristic solution: objective 531594.00000
Presolve removed 287 rows and 118 columns
Presolve time: 0.01s
Presolved: 242 rows, 634 columns, 1454 nonzeros
Found heuristic solution: objective 536194.00000
Variable types: 0 continuous, 634 integer (10 binary)
Found heuristic solution: objective 549812.00000

Root relaxation: objective 5.974695e+05, 338 iterations, 0.00 seconds (0.00 work units)

    Nodes    |    Current Node    |     Objective Bounds      |     Work
 Expl Unexpl |  Obj  Depth IntInf | Incumbent    BestBd   Gap | It/Node Time

     0     0 597469.496    0   61 549812.000 597469.496  8.67%     -    0s
H    0     0                    596336.00000 597469.496  0.19%     -    0s
H    0     0                    596427.00000 597469.496  0.17%     -    0s
H    0     0                    596691.00000 597469.496  0.13%     -    0s
H    0     0                    596789.00000 597469.496  0.11%     -    0s
H    0     0                    596999.00000 597469.496  0.08%     -    0s
H    0     0                    597072.00000 597469.496  0.07%     -    0s
H    0     0                    597130.00000 597469.496  0.06%     -    0s
H    0     0                    597135.00000 597469.496  0.06%     -    0s
     0     0 597334.205    0   33 597135.000 597334.205  0.03%     -    0s
H    0     0                    597156.00000 597334.205  0.03%     -    0s
H    0     0                    597197.00000 597334.205  0.02%     -    0s
H    0     0                    597219.00000 597334.205  0.02%     -    0s
     0     0 597333.667    0   31 597219.000 597333.667  0.02%     -    0s
H    0     0                    597269.00000 597317.000  0.01%     -    0s
     0     0 597317.000    0   10 597269.000 597317.000  0.01%     -    0s

Cutting planes:
  Gomory: 22
  Implied bound: 1
  MIR: 30
  StrongCG: 7

Explored 1 nodes (483 simplex iterations) in 0.04 seconds (0.01 work units)
Thread count was 20 (of 20 available processors)

Solution count 10: 597269 597219 597197 ... 596691

Optimal solution found (tolerance 1.00e-04)
Best objective 5.972690000000e+05, best bound 5.973170000000e+05, gap 0.0080%

Gurobi 13.0.0 (win64) logging started Wed Dec 17 20:45:35 2025

Set parameter LogFile to value "log_file"
Gurobi Optimizer version 13.0.0 build v13.0.0rc1 (win64 - Windows 11.0 (26100.2))

CPU model: 13th Gen Intel(R) Core(TM) i7-13700H, instruction set [SSE2|AVX|AVX2]
Thread count: 14 physical cores, 20 logical processors, using up to 20 threads

Optimize a model with 25 rows, 32 columns and 77 nonzeros (Max)
Model fingerprint: 0xaef24540
Model has 32 linear objective coefficients
Variable types: 0 continuous, 32 integer (0 binary)
Coefficient statistics:
  Matrix range     [1e+00, 1e+01]
  Objective range  [5e+01, 2e+02]
  Bounds range     [0e+00, 0e+00]
  RHS range        [3e+01, 2e+02]
Found heuristic solution: objective 56420.000000
Presolve removed 5 rows and 2 columns
Presolve time: 0.00s
Presolved: 20 rows, 30 columns, 69 nonzeros
Found heuristic solution: objective 62220.000000
Variable types: 0 continuous, 30 integer (0 binary)

Root relaxation: objective 1.179190e+05, 18 iterations, 0.00 seconds (0.00 work units)

    Nodes    |    Current Node    |     Objective Bounds      |     Work
 Expl Unexpl |  Obj  Depth IntInf | Incumbent    BestBd   Gap | It/Node Time

     0     0 117919.000    0    7 62220.0000 117919.000  89.5%     -    0s
H    0     0                    117565.00000 117919.000  0.30%     -    0s
H    0     0                    117815.00000 117919.000  0.09%     -    0s
H    0     0                    117865.00000 117919.000  0.05%     -    0s
     0     0     cutoff    0      117865.000 117865.000  0.00%     -    0s

Cutting planes:
  Gomory: 1
  MIR: 2
  Mod-K: 1

Explored 1 nodes (23 simplex iterations) in 0.01 seconds (0.00 work units)
Thread count was 20 (of 20 available processors)

Solution count 5: 117865 117815 117565 ... 56420

Optimal solution found (tolerance 1.00e-04)
Best objective 1.178650000000e+05, best bound 1.178650000000e+05, gap 0.0000%

Gurobi 13.0.0 (win64) logging started Thu Dec 18 13:51:05 2025

Set parameter LogFile to value "log_file"
Gurobi Optimizer version 13.0.0 build v13.0.0rc1 (win64 - Windows 11.0 (26100.2))

CPU model: 13th Gen Intel(R) Core(TM) i7-13700H, instruction set [SSE2|AVX|AVX2]
Thread count: 14 physical cores, 20 logical processors, using up to 20 threads

Optimize a model with 529 rows, 752 columns and 1962 nonzeros (Max)
Model fingerprint: 0x640b44fa
Model has 752 linear objective coefficients
Variable types: 0 continuous, 752 integer (0 binary)
Coefficient statistics:
  Matrix range     [1e+00, 1e+01]
  Objective range  [4e+01, 3e+02]
  Bounds range     [0e+00, 0e+00]
  RHS range        [1e+00, 3e+02]
Found heuristic solution: objective 531594.00000
Presolve removed 287 rows and 118 columns
Presolve time: 0.01s
Presolved: 242 rows, 634 columns, 1454 nonzeros
Found heuristic solution: objective 536194.00000
Variable types: 0 continuous, 634 integer (10 binary)
Found heuristic solution: objective 549812.00000

Root relaxation: objective 5.974695e+05, 338 iterations, 0.00 seconds (0.00 work units)

    Nodes    |    Current Node    |     Objective Bounds      |     Work
 Expl Unexpl |  Obj  Depth IntInf | Incumbent    BestBd   Gap | It/Node Time

     0     0 597469.496    0   61 549812.000 597469.496  8.67%     -    0s
H    0     0                    596336.00000 597469.496  0.19%     -    0s
H    0     0                    596427.00000 597469.496  0.17%     -    0s
H    0     0                    596691.00000 597469.496  0.13%     -    0s
H    0     0                    596789.00000 597469.496  0.11%     -    0s
H    0     0                    596999.00000 597469.496  0.08%     -    0s
H    0     0                    597072.00000 597469.496  0.07%     -    0s
H    0     0                    597130.00000 597469.496  0.06%     -    0s
H    0     0                    597135.00000 597469.496  0.06%     -    0s
     0     0 597334.205    0   33 597135.000 597334.205  0.03%     -    0s
H    0     0                    597156.00000 597334.205  0.03%     -    0s
H    0     0                    597197.00000 597334.205  0.02%     -    0s
H    0     0                    597219.00000 597334.205  0.02%     -    0s
     0     0 597333.667    0   31 597219.000 597333.667  0.02%     -    0s
H    0     0                    597269.00000 597317.000  0.01%     -    0s
     0     0 597317.000    0   10 597269.000 597317.000  0.01%     -    0s

Cutting planes:
  Gomory: 22
  Implied bound: 1
  MIR: 30
  StrongCG: 7

Explored 1 nodes (483 simplex iterations) in 0.04 seconds (0.01 work units)
Thread count was 20 (of 20 available processors)

Solution count 10: 597269 597219 597197 ... 596691

Optimal solution found (tolerance 1.00e-04)
Best objective 5.972690000000e+05, best bound 5.973170000000e+05, gap 0.0080%

Gurobi 13.0.0 (win64) logging started Thu Dec 18 13:53:35 2025

Set parameter LogFile to value "log_file"
Gurobi Optimizer version 13.0.0 build v13.0.0rc1 (win64 - Windows 11.0 (26100.2))

CPU model: 13th Gen Intel(R) Core(TM) i7-13700H, instruction set [SSE2|AVX|AVX2]
Thread count: 14 physical cores, 20 logical processors, using up to 20 threads

Optimize a model with 529 rows, 752 columns and 1962 nonzeros (Max)
Model fingerprint: 0x640b44fa
Model has 752 linear objective coefficients
Variable types: 0 continuous, 752 integer (0 binary)
Coefficient statistics:
  Matrix range     [1e+00, 1e+01]
  Objective range  [4e+01, 3e+02]
  Bounds range     [0e+00, 0e+00]
  RHS range        [1e+00, 3e+02]
Found heuristic solution: objective 531594.00000
Presolve removed 287 rows and 118 columns
Presolve time: 0.00s
Presolved: 242 rows, 634 columns, 1454 nonzeros
Found heuristic solution: objective 536194.00000
Variable types: 0 continuous, 634 integer (10 binary)
Found heuristic solution: objective 549812.00000

Root relaxation: objective 5.974695e+05, 338 iterations, 0.00 seconds (0.00 work units)

    Nodes    |    Current Node    |     Objective Bounds      |     Work
 Expl Unexpl |  Obj  Depth IntInf | Incumbent    BestBd   Gap | It/Node Time

     0     0 597469.496    0   61 549812.000 597469.496  8.67%     -    0s
H    0     0                    596336.00000 597469.496  0.19%     -    0s
H    0     0                    596427.00000 597469.496  0.17%     -    0s
H    0     0                    596691.00000 597469.496  0.13%     -    0s
H    0     0                    596789.00000 597469.496  0.11%     -    0s
H    0     0                    596999.00000 597469.496  0.08%     -    0s
H    0     0                    597072.00000 597469.496  0.07%     -    0s
H    0     0                    597130.00000 597469.496  0.06%     -    0s
H    0     0                    597135.00000 597469.496  0.06%     -    0s
     0     0 597334.205    0   33 597135.000 597334.205  0.03%     -    0s
H    0     0                    597156.00000 597334.205  0.03%     -    0s
H    0     0                    597197.00000 597334.205  0.02%     -    0s
H    0     0                    597219.00000 597334.205  0.02%     -    0s
     0     0 597333.667    0   31 597219.000 597333.667  0.02%     -    0s
H    0     0                    597269.00000 597317.000  0.01%     -    0s
     0     0 597317.000    0   10 597269.000 597317.000  0.01%     -    0s

Cutting planes:
  Gomory: 22
  Implied bound: 1
  MIR: 30
  StrongCG: 7

Explored 1 nodes (483 simplex iterations) in 0.04 seconds (0.01 work units)
Thread count was 20 (of 20 available processors)

Solution count 10: 597269 597219 597197 ... 596691

Optimal solution found (tolerance 1.00e-04)
Best objective 5.972690000000e+05, best bound 5.973170000000e+05, gap 0.0080%

Gurobi 13.0.0 (win64) logging started Thu Dec 18 14:02:14 2025

Set parameter LogFile to value "log_file"
Gurobi Optimizer version 13.0.0 build v13.0.0rc1 (win64 - Windows 11.0 (26100.2))

CPU model: 13th Gen Intel(R) Core(TM) i7-13700H, instruction set [SSE2|AVX|AVX2]
Thread count: 14 physical cores, 20 logical processors, using up to 20 threads

Optimize a model with 529 rows, 752 columns and 1962 nonzeros (Max)
Model fingerprint: 0x640b44fa
Model has 752 linear objective coefficients
Variable types: 0 continuous, 752 integer (0 binary)
Coefficient statistics:
  Matrix range     [1e+00, 1e+01]
  Objective range  [4e+01, 3e+02]
  Bounds range     [0e+00, 0e+00]
  RHS range        [1e+00, 3e+02]
Found heuristic solution: objective 531594.00000
Presolve removed 287 rows and 118 columns
Presolve time: 0.01s
Presolved: 242 rows, 634 columns, 1454 nonzeros
Found heuristic solution: objective 536194.00000
Variable types: 0 continuous, 634 integer (10 binary)
Found heuristic solution: objective 549812.00000

Root relaxation: objective 5.974695e+05, 338 iterations, 0.00 seconds (0.00 work units)

    Nodes    |    Current Node    |     Objective Bounds      |     Work
 Expl Unexpl |  Obj  Depth IntInf | Incumbent    BestBd   Gap | It/Node Time

     0     0 597469.496    0   61 549812.000 597469.496  8.67%     -    0s
H    0     0                    596336.00000 597469.496  0.19%     -    0s
H    0     0                    596427.00000 597469.496  0.17%     -    0s
H    0     0                    596691.00000 597469.496  0.13%     -    0s
H    0     0                    596789.00000 597469.496  0.11%     -    0s
H    0     0                    596999.00000 597469.496  0.08%     -    0s
H    0     0                    597072.00000 597469.496  0.07%     -    0s
H    0     0                    597130.00000 597469.496  0.06%     -    0s
H    0     0                    597135.00000 597469.496  0.06%     -    0s
     0     0 597334.205    0   33 597135.000 597334.205  0.03%     -    0s
H    0     0                    597156.00000 597334.205  0.03%     -    0s
H    0     0                    597197.00000 597334.205  0.02%     -    0s
H    0     0                    597219.00000 597334.205  0.02%     -    0s
     0     0 597333.667    0   31 597219.000 597333.667  0.02%     -    0s
H    0     0                    597269.00000 597317.000  0.01%     -    0s
     0     0 597317.000    0   10 597269.000 597317.000  0.01%     -    0s

Cutting planes:
  Gomory: 22
  Implied bound: 1
  MIR: 30
  StrongCG: 7

Explored 1 nodes (483 simplex iterations) in 0.04 seconds (0.01 work units)
Thread count was 20 (of 20 available processors)

Solution count 10: 597269 597219 597197 ... 596691

Optimal solution found (tolerance 1.00e-04)
Best objective 5.972690000000e+05, best bound 5.973170000000e+05, gap 0.0080%

Gurobi 13.0.0 (win64) logging started Thu Dec 18 14:21:13 2025

Set parameter LogFile to value "log_file"
Gurobi Optimizer version 13.0.0 build v13.0.0rc1 (win64 - Windows 11.0 (26100.2))

CPU model: 13th Gen Intel(R) Core(TM) i7-13700H, instruction set [SSE2|AVX|AVX2]
Thread count: 14 physical cores, 20 logical processors, using up to 20 threads

Optimize a model with 529 rows, 752 columns and 1962 nonzeros (Max)
Model fingerprint: 0x640b44fa
Model has 752 linear objective coefficients
Variable types: 0 continuous, 752 integer (0 binary)
Coefficient statistics:
  Matrix range     [1e+00, 1e+01]
  Objective range  [4e+01, 3e+02]
  Bounds range     [0e+00, 0e+00]
  RHS range        [1e+00, 3e+02]
Found heuristic solution: objective 531594.00000
Presolve removed 287 rows and 118 columns
Presolve time: 0.01s
Presolved: 242 rows, 634 columns, 1454 nonzeros
Found heuristic solution: objective 536194.00000
Variable types: 0 continuous, 634 integer (10 binary)
Found heuristic solution: objective 549812.00000

Root relaxation: objective 5.974695e+05, 338 iterations, 0.00 seconds (0.00 work units)

    Nodes    |    Current Node    |     Objective Bounds      |     Work
 Expl Unexpl |  Obj  Depth IntInf | Incumbent    BestBd   Gap | It/Node Time

     0     0 597469.496    0   61 549812.000 597469.496  8.67%     -    0s
H    0     0                    596336.00000 597469.496  0.19%     -    0s
H    0     0                    596427.00000 597469.496  0.17%     -    0s
H    0     0                    596691.00000 597469.496  0.13%     -    0s
H    0     0                    596789.00000 597469.496  0.11%     -    0s
H    0     0                    596999.00000 597469.496  0.08%     -    0s
H    0     0                    597072.00000 597469.496  0.07%     -    0s
H    0     0                    597130.00000 597469.496  0.06%     -    0s
H    0     0                    597135.00000 597469.496  0.06%     -    0s
     0     0 597334.205    0   33 597135.000 597334.205  0.03%     -    0s
H    0     0                    597156.00000 597334.205  0.03%     -    0s
H    0     0                    597197.00000 597334.205  0.02%     -    0s
H    0     0                    597219.00000 597334.205  0.02%     -    0s
     0     0 597333.667    0   31 597219.000 597333.667  0.02%     -    0s
H    0     0                    597269.00000 597317.000  0.01%     -    0s
     0     0 597317.000    0   10 597269.000 597317.000  0.01%     -    0s

Cutting planes:
  Gomory: 22
  Implied bound: 1
  MIR: 30
  StrongCG: 7

Explored 1 nodes (483 simplex iterations) in 0.04 seconds (0.01 work units)
Thread count was 20 (of 20 available processors)

Solution count 10: 597269 597219 597197 ... 596691

Optimal solution found (tolerance 1.00e-04)
Best objective 5.972690000000e+05, best bound 5.973170000000e+05, gap 0.0080%

Gurobi 13.0.0 (win64) logging started Thu Dec 18 15:28:26 2025

Set parameter LogFile to value "log_file"
Gurobi Optimizer version 13.0.0 build v13.0.0rc1 (win64 - Windows 11.0 (26100.2))

CPU model: 13th Gen Intel(R) Core(TM) i7-13700H, instruction set [SSE2|AVX|AVX2]
Thread count: 14 physical cores, 20 logical processors, using up to 20 threads

Optimize a model with 529 rows, 752 columns and 1962 nonzeros (Max)
Model fingerprint: 0x640b44fa
Model has 752 linear objective coefficients
Variable types: 0 continuous, 752 integer (0 binary)
Coefficient statistics:
  Matrix range     [1e+00, 1e+01]
  Objective range  [4e+01, 3e+02]
  Bounds range     [0e+00, 0e+00]
  RHS range        [1e+00, 3e+02]
Found heuristic solution: objective 531594.00000
Presolve removed 287 rows and 118 columns
Presolve time: 0.01s
Presolved: 242 rows, 634 columns, 1454 nonzeros
Found heuristic solution: objective 536194.00000
Variable types: 0 continuous, 634 integer (10 binary)
Found heuristic solution: objective 549812.00000

Root relaxation: objective 5.974695e+05, 338 iterations, 0.00 seconds (0.00 work units)

    Nodes    |    Current Node    |     Objective Bounds      |     Work
 Expl Unexpl |  Obj  Depth IntInf | Incumbent    BestBd   Gap | It/Node Time

     0     0 597469.496    0   61 549812.000 597469.496  8.67%     -    0s
H    0     0                    596336.00000 597469.496  0.19%     -    0s
H    0     0                    596427.00000 597469.496  0.17%     -    0s
H    0     0                    596691.00000 597469.496  0.13%     -    0s
H    0     0                    596789.00000 597469.496  0.11%     -    0s
H    0     0                    596999.00000 597469.496  0.08%     -    0s
H    0     0                    597072.00000 597469.496  0.07%     -    0s
H    0     0                    597130.00000 597469.496  0.06%     -    0s
H    0     0                    597135.00000 597469.496  0.06%     -    0s
     0     0 597334.205    0   33 597135.000 597334.205  0.03%     -    0s
H    0     0                    597156.00000 597334.205  0.03%     -    0s
H    0     0                    597197.00000 597334.205  0.02%     -    0s
H    0     0                    597219.00000 597334.205  0.02%     -    0s
     0     0 597333.667    0   31 597219.000 597333.667  0.02%     -    0s
H    0     0                    597269.00000 597317.000  0.01%     -    0s
     0     0 597317.000    0   10 597269.000 597317.000  0.01%     -    0s

Cutting planes:
  Gomory: 22
  Implied bound: 1
  MIR: 30
  StrongCG: 7

Explored 1 nodes (483 simplex iterations) in 0.04 seconds (0.01 work units)
Thread count was 20 (of 20 available processors)

Solution count 10: 597269 597219 597197 ... 596691

Optimal solution found (tolerance 1.00e-04)
Best objective 5.972690000000e+05, best bound 5.973170000000e+05, gap 0.0080%

Gurobi 13.0.0 (win64) logging started Thu Dec 18 15:43:31 2025

Set parameter LogFile to value "log_file"
Gurobi Optimizer version 13.0.0 build v13.0.0rc1 (win64 - Windows 11.0 (26100.2))

CPU model: 13th Gen Intel(R) Core(TM) i7-13700H, instruction set [SSE2|AVX|AVX2]
Thread count: 14 physical cores, 20 logical processors, using up to 20 threads

Optimize a model with 529 rows, 752 columns and 1962 nonzeros (Max)
Model fingerprint: 0x640b44fa
Model has 752 linear objective coefficients
Variable types: 0 continuous, 752 integer (0 binary)
Coefficient statistics:
  Matrix range     [1e+00, 1e+01]
  Objective range  [4e+01, 3e+02]
  Bounds range     [0e+00, 0e+00]
  RHS range        [1e+00, 3e+02]
Found heuristic solution: objective 531594.00000
Presolve removed 287 rows and 118 columns
Presolve time: 0.01s
Presolved: 242 rows, 634 columns, 1454 nonzeros
Found heuristic solution: objective 536194.00000
Variable types: 0 continuous, 634 integer (10 binary)
Found heuristic solution: objective 549812.00000

Root relaxation: objective 5.974695e+05, 338 iterations, 0.00 seconds (0.00 work units)

    Nodes    |    Current Node    |     Objective Bounds      |     Work
 Expl Unexpl |  Obj  Depth IntInf | Incumbent    BestBd   Gap | It/Node Time

     0     0 597469.496    0   61 549812.000 597469.496  8.67%     -    0s
H    0     0                    596336.00000 597469.496  0.19%     -    0s
H    0     0                    596427.00000 597469.496  0.17%     -    0s
H    0     0                    596691.00000 597469.496  0.13%     -    0s
H    0     0                    596789.00000 597469.496  0.11%     -    0s
H    0     0                    596999.00000 597469.496  0.08%     -    0s
H    0     0                    597072.00000 597469.496  0.07%     -    0s
H    0     0                    597130.00000 597469.496  0.06%     -    0s
H    0     0                    597135.00000 597469.496  0.06%     -    0s
     0     0 597334.205    0   33 597135.000 597334.205  0.03%     -    0s
H    0     0                    597156.00000 597334.205  0.03%     -    0s
H    0     0                    597197.00000 597334.205  0.02%     -    0s
H    0     0                    597219.00000 597334.205  0.02%     -    0s
     0     0 597333.667    0   31 597219.000 597333.667  0.02%     -    0s
H    0     0                    597269.00000 597317.000  0.01%     -    0s
     0     0 597317.000    0   10 597269.000 597317.000  0.01%     -    0s

Cutting planes:
  Gomory: 22
  Implied bound: 1
  MIR: 30
  StrongCG: 7

Explored 1 nodes (483 simplex iterations) in 0.14 seconds (0.01 work units)
Thread count was 20 (of 20 available processors)

Solution count 10: 597269 597219 597197 ... 596691

Optimal solution found (tolerance 1.00e-04)
Best objective 5.972690000000e+05, best bound 5.973170000000e+05, gap 0.0080%

Gurobi 13.0.0 (win64) logging started Thu Dec 18 16:05:28 2025

Set parameter LogFile to value "log_file"
Gurobi Optimizer version 13.0.0 build v13.0.0rc1 (win64 - Windows 11.0 (26100.2))

CPU model: 13th Gen Intel(R) Core(TM) i7-13700H, instruction set [SSE2|AVX|AVX2]
Thread count: 14 physical cores, 20 logical processors, using up to 20 threads

Optimize a model with 529 rows, 145924 columns and 236446 nonzeros (Max)
Model fingerprint: 0x691ca575
Model has 752 linear objective coefficients
Variable types: 0 continuous, 145924 integer (0 binary)
Coefficient statistics:
  Matrix range     [1e+00, 1e+01]
  Objective range  [4e+01, 3e+02]
  Bounds range     [0e+00, 0e+00]
  RHS range        [1e+00, 3e+02]
Found heuristic solution: objective 531211.00000
Presolve removed 264 rows and 145221 columns
Presolve time: 0.03s
Presolved: 265 rows, 703 columns, 1580 nonzeros
Variable types: 0 continuous, 703 integer (15 binary)
Performing another presolve...
Presolve removed 23 rows and 69 columns
Presolve time: 0.05s
Found heuristic solution: objective 536231.00000

Root relaxation: objective 5.974695e+05, 314 iterations, 0.00 seconds (0.00 work units)

    Nodes    |    Current Node    |     Objective Bounds      |     Work
 Expl Unexpl |  Obj  Depth IntInf | Incumbent    BestBd   Gap | It/Node Time

     0     0 597469.496    0   70 536231.000 597469.496  11.4%     -    0s
H    0     0                    552612.00000 597469.496  8.12%     -    0s
H    0     0                    596157.00000 597469.496  0.22%     -    0s
H    0     0                    596165.00000 597469.496  0.22%     -    0s
H    0     0                    596333.00000 597469.496  0.19%     -    0s
H    0     0                    597017.00000 597469.496  0.08%     -    0s
H    0     0                    597136.00000 597469.496  0.06%     -    0s
H    0     0                    597138.00000 597469.496  0.06%     -    0s
H    0     0                    597143.00000 597469.496  0.05%     -    0s
     0     0 597334.205    0   40 597143.000 597334.205  0.03%     -    0s
H    0     0                    597150.00000 597334.205  0.03%     -    0s
H    0     0                    597254.00000 597334.205  0.01%     -    0s
     0     0 597332.621    0   41 597254.000 597332.621  0.01%     -    0s
     0     0          -    0      597254.000 597298.163  0.01%     -    0s

Cutting planes:
  Gomory: 27
  Implied bound: 1
  MIR: 36
  StrongCG: 14

Explored 1 nodes (415 simplex iterations) in 0.22 seconds (0.05 work units)
Thread count was 20 (of 20 available processors)

Solution count 10: 597254 597150 597143 ... 552612

Optimal solution found (tolerance 1.00e-04)
Best objective 5.972540000000e+05, best bound 5.972980000000e+05, gap 0.0074%

Gurobi 13.0.0 (win64) logging started Fri Dec 19 18:28:22 2025

Set parameter LogFile to value "log_file"
Gurobi Optimizer version 13.0.0 build v13.0.0rc1 (win64 - Windows 11.0 (26100.2))

CPU model: 13th Gen Intel(R) Core(TM) i7-13700H, instruction set [SSE2|AVX|AVX2]
Thread count: 14 physical cores, 20 logical processors, using up to 20 threads

Optimize a model with 529 rows, 145924 columns and 236446 nonzeros (Max)
Model fingerprint: 0x691ca575
Model has 752 linear objective coefficients
Variable types: 0 continuous, 145924 integer (0 binary)
Coefficient statistics:
  Matrix range     [1e+00, 1e+01]
  Objective range  [4e+01, 3e+02]
  Bounds range     [0e+00, 0e+00]
  RHS range        [1e+00, 3e+02]
Found heuristic solution: objective 531211.00000
Presolve removed 264 rows and 145221 columns
Presolve time: 0.02s
Presolved: 265 rows, 703 columns, 1580 nonzeros
Variable types: 0 continuous, 703 integer (15 binary)
Performing another presolve...
Presolve removed 23 rows and 69 columns
Presolve time: 0.00s
Found heuristic solution: objective 536231.00000

Root relaxation: objective 5.974695e+05, 314 iterations, 0.00 seconds (0.00 work units)

    Nodes    |    Current Node    |     Objective Bounds      |     Work
 Expl Unexpl |  Obj  Depth IntInf | Incumbent    BestBd   Gap | It/Node Time

     0     0 597469.496    0   70 536231.000 597469.496  11.4%     -    0s
H    0     0                    552612.00000 597469.496  8.12%     -    0s
H    0     0                    596157.00000 597469.496  0.22%     -    0s
H    0     0                    596165.00000 597469.496  0.22%     -    0s
H    0     0                    596333.00000 597469.496  0.19%     -    0s
H    0     0                    597017.00000 597469.496  0.08%     -    0s
H    0     0                    597136.00000 597469.496  0.06%     -    0s
H    0     0                    597138.00000 597469.496  0.06%     -    0s
H    0     0                    597143.00000 597469.496  0.05%     -    0s
     0     0 597334.205    0   40 597143.000 597334.205  0.03%     -    0s
H    0     0                    597150.00000 597334.205  0.03%     -    0s
H    0     0                    597254.00000 597334.205  0.01%     -    0s
     0     0 597332.621    0   41 597254.000 597332.621  0.01%     -    0s
     0     0          -    0      597254.000 597298.163  0.01%     -    0s

Cutting planes:
  Gomory: 27
  Implied bound: 1
  MIR: 36
  StrongCG: 14

Explored 1 nodes (415 simplex iterations) in 0.12 seconds (0.05 work units)
Thread count was 20 (of 20 available processors)

Solution count 10: 597254 597150 597143 ... 552612

Optimal solution found (tolerance 1.00e-04)
Best objective 5.972540000000e+05, best bound 5.972980000000e+05, gap 0.0074%
